1000
30
19 145
18 136
96 297
69 144
96 309
55 469
75 214
47 122
18 270
64 56
97 34
15 88
81 91
88 226
77 42
50 205
77 249
68 138
71 450
2 358
93 68
88 463
69 394
35 403
83 184
15 160
56 90
59 11
93 458
93 144
